NAME: berlin52
TYPE: TSP
COMMENT: 52 locations in Berlin (Groetschel)
DIMENSION: 52
EDGE_WEIGHT_TYPE: EUC_2D
NODE_COORD_SECTION
1 565.0 575.0
2 25.0 185.0
3 345.0 750.0
4 945.0 685.0
5 845.0 655.0
6 880.0 660.0
7 25.0 230.0
8 650.0 1130.0
9 1605.0 620.0
10 1220.0 580.0
11 1465.0 200.0
12 1530.0 5.0
13 845.0 680.0
14 725.0 370.0
15 145.0 665.0
16 415.0 635.0
17 510.0 875.0
18 560.0 365.0
19 475.0 960.0
20 95.0 260.0
21 700.0 500.0
22 555.0 815.0
23 830.0 485.0
24 1170.0 65.0
25 830.0 610.0
EOF

